WARNING: for repeatability, setting FPU to use double precision
============================[ Problem Statistics ]=============================
|                                                                             |
|  Number of variables:         14756                                         |
|  Number of clauses:          141683                                         |
|  Parse time:                   0.11 s                                       |
|  Simplification time:          0.05 s                                       |
|                                                                             |
============================[ Search Statistics ]==============================
| Conflicts |          ORIGINAL         |          LEARNT          | Progress |
|           |    Vars  Clauses Literals |    Limit  Clauses Lit/Cl |          |
===============================================================================
|       100 |   14756   141683   478920 |    51950      100     31 |  0.000 % |
|       250 |   14756   141683   478920 |    57145      250     23 |  0.000 % |
|       475 |   14756   141683   478920 |    62860      475     21 |  0.000 % |
|       812 |   14756   141683   478920 |    69146      812     19 |  0.000 % |
|      1318 |   14756   141683   478920 |    76060     1318     18 |  0.000 % |
|      2077 |   14756   141683   478920 |    83666     2077     18 |  0.000 % |
|      3216 |   14756   141683   478920 |    92033     3216     18 |  0.000 % |
|      4924 |   14756   141683   478920 |   101236     4924     17 |  0.000 % |
|      7486 |   14756   141683   478920 |   111360     7486     16 |  0.000 % |
|     11330 |   14756   141683   478920 |   122496    11330     16 |  0.000 % |
|     17096 |   14756   141683   478920 |   134746    17096     16 |  0.000 % |
|     25745 |   14756   141683   478920 |   148220    25745     15 |  0.000 % |
|     38719 |   14756   141683   478920 |   163042    38719     15 |  0.000 % |
|     58180 |   14756   141683   478920 |   179346    58180     16 |  0.000 % |
|     87372 |   14756   141683   478920 |   197281    87372     16 |  0.000 % |
|    131161 |   14756   141683   478920 |   217009   131161     16 |  0.000 % |
|    196845 |   14756   141683   478920 |   238710   196845     16 |  0.000 % |
|    295371 |   14756   141683   478920 |   262581    72576     16 |  0.000 % |
|    443160 |   14756   141683   478920 |   288840   220365     16 |  0.000 % |
|    664843 |   14756   141683   478920 |   317724   170110     16 |  0.000 % |
|    997368 |   14756   141683   478920 |   349496   201265     17 |  0.000 % |
|   1496156 |   14756   141683   478920 |   384446    35138     14 |  0.000 % |
|   2244338 |   14756   141683   478920 |   422890    47058     19 |  0.000 % |
|   3366612 |   14751   141389   478144 |   465179   214833     16 |  0.034 % |
|   5050023 |   14749   141321   477982 |   511697    33793     19 |  0.047 % |
|   7575139 |   14749   141321   477982 |   562867   106725     19 |  0.047 % |
|  11362814 |   14749   141321   477982 |   619154   103337     19 |  0.048 % |
===============================================================================
restarts              : 20811
conflicts             : 14067070       (9789 /sec)
decisions             : 16868382       (0.00 % random) (11739 /sec)
propagations          : 5811091505     (4043993 /sec)
conflict literals     : 249020465      (46.01 % deleted)
Memory used           : 310.00 MB
CPU time              : 1436.97 s

UNSATISFIABLE
MiniSat a returnat un cod de eroare 20 pentru fișierul 07c50b89d97a55b6e1629999a445a2ba-ctl_4201_555_unsat_pre.cnf.
